SYSTEM=GaN
IALGO=48
NELM=200
NELMIN=4
ENCUT=520 eV
EDIFF=1E-06
ISMEAR=0
SIGMA=0.01
LREAL=.FALSE
ISYM=0
NCORE= 5

ISIF=2
POTIM=0.2
NSW=0
IBRION=-1
PREC=HIGH

#PREC=A
LWAVE=.FALSE.
LCHARG=.FALSE.

KSPACING=0.3
KGAMMA=T
